10
1 8
2 3
3 2
4 10
5 3
6 7
7 1
8 3
9 9
26
0 1 97
1 0 97
0 2 30
2 0 30
0 3 69
3 0 69
0 4 47
4 0 47
0 5 47
5 0 47
0 6 52
6 0 52
0 7 91
7 0 91
0 8 19
8 0 19
0 9 75
9 0 75
1 3 2
1 9 52
2 6 58
3 8 10
3 9 33
5 9 93
6 8 32
7 8 26
